p cnf 763 2362
a 2 3 4 5 6 7 8 9 10 11 15 20 22 24 25 26 29 31 33 34 36 38 40 41 43 45 47 49 51 53 55 58 59 66 68 72 76 78 80 84 91 96 101 107 108 112 115 116 125 130 133 134 141 142 146 150 151 154 158 162 164 166 168 170 171 175 179 181 185 189 194 196 200 202 203 206 210 0
e 1 12 13 14 16 17 18 19 21 23 27 28 30 32 35 37 39 42 44 46 48 50 52 54 56 57 60 61 62 63 64 65 67 69 70 71 73 74 75 77 79 81 82 83 85 86 87 88 89 90 92 93 94 95 97 98 99 100 102 103 104 105 106 109 110 111 113 114 117 118 119 120 121 122 123 124 126 127 128 129 131 132 135 136 137 138 139 140 143 144 145 147 148 149 152 153 155 156 157 159 160 161 163 165 167 169 172 173 174 176 177 178 180 182 183 184 186 187 188 190 191 192 193 195 197 198 199 201 204 205 207 208 209 211 212 213 214 215 216 217 218 219 220 221 222 223 224 225 226 227 228 229 230 231 232 233 234 235 236 237 238 239 240 241 242 243 244 245 246 247 248 249 250 251 252 253 254 255 256 257 258 259 260 261 262 263 264 265 266 267 268 269 270 271 272 273 274 275 276 277 278 279 280 281 282 283 284 285 286 287 288 289 290 291 292 293 294 295 296 297 298 299 300 301 302 303 304 305 306 307 308 309 310 311 312 313 314 315 316 317 318 319 320 321 322 323 324 325 326 327 328 329 330 331 332 333 334 335 336 337 338 339 340 341 342 343 344 345 346 347 348 349 350 351 352 353 354 355 356 357 358 359 360 361 362 363 364 365 366 367 368 369 370 371 372 373 374 375 376 377 378 379 380 381 382 383 384 385 386 387 388 389 390 391 392 393 394 395 396 397 398 399 400 401 402 403 404 405 406 407 408 409 410 411 412 413 414 415 416 417 418 419 420 421 422 423 424 425 426 427 428 429 430 431 432 433 434 435 436 437 438 439 440 441 442 443 444 445 446 447 448 449 450 451 452 453 454 455 456 457 458 459 460 461 462 463 464 465 466 467 468 469 470 471 472 473 474 475 476 477 478 479 480 481 482 483 484 485 486 487 488 489 490 491 492 493 494 495 496 497 498 499 500 501 502 503 504 505 506 507 508 509 510 511 512 513 514 515 516 517 518 519 520 521 522 523 524 525 526 527 528 529 530 531 532 533 534 535 536 537 538 539 540 541 542 543 544 545 546 547 548 549 550 551 552 553 554 555 556 557 558 559 560 561 562 563 564 565 566 567 568 569 570 571 572 573 574 575 576 577 578 579 580 581 582 583 584 585 586 587 588 589 590 591 592 593 594 595 596 597 598 599 600 601 602 603 604 605 606 607 608 609 610 611 612 613 614 615 616 617 618 619 620 621 622 623 624 625 626 627 628 629 630 631 632 633 634 635 636 637 638 639 640 641 642 643 644 645 646 647 648 649 650 651 652 653 654 655 656 657 658 659 660 661 662 663 664 665 666 667 668 669 670 671 672 673 674 675 676 677 678 679 680 681 682 683 684 685 686 687 688 689 690 691 692 693 694 695 696 697 698 699 700 701 702 703 704 705 706 707 708 709 710 711 712 713 714 715 716 717 718 719 720 721 722 723 724 725 726 727 728 729 730 731 732 733 734 735 736 737 738 739 740 741 742 743 744 745 746 747 748 749 750 751 752 753 754 755 756 757 758 759 760 761 762 763 0
1 0
10 -12 0
11 -12 0
-10 -11 12 0
10 -13 0
-11 -13 0
-10 11 13 0
10 14 0
-12 14 0
-13 14 0
-10 12 13 -14 0
-15 16 0
15 16 0
9 -17 0
14 -17 0
16 -17 0
-9 -14 -16 17 0
-9 -18 0
14 -18 0
9 -14 18 0
-17 19 0
-18 19 0
17 18 -19 0
-20 21 0
20 21 0
-22 23 0
22 23 0
25 -27 0
-26 -27 0
-25 26 27 0
25 28 0
-27 28 0
-25 27 -28 0
-29 30 0
29 30 0
30 -32 0
31 -32 0
-30 -31 32 0
-34 35 0
34 35 0
35 -37 0
-36 -37 0
-35 36 37 0
35 -39 0
36 -39 0
38 -39 0
-35 -36 -38 39 0
35 -42 0
36 -42 0
-38 -42 0
40 -42 0
41 -42 0
-35 -36 38 -40 -41 42 0
35 -44 0
36 -44 0
-38 -44 0
40 -44 0
-41 -44 0
-43 -44 0
-35 -36 38 -40 41 43 44 0
35 -46 0
36 -46 0
-38 -46 0
-40 -46 0
-45 -46 0
-35 -36 38 40 45 46 0
35 -48 0
36 -48 0
-38 -48 0
-40 -48 0
45 -48 0
47 -48 0
-35 -36 38 40 -45 -47 48 0
35 -50 0
36 -50 0
-38 -50 0
40 -50 0
-41 -50 0
43 -50 0
49 -50 0
-35 -36 38 -40 41 -43 -49 50 0
35 -52 0
36 -52 0
-38 -52 0
40 -52 0
-41 -52 0
43 -52 0
-49 -52 0
51 -52 0
-35 -36 38 -40 41 -43 49 -51 52 0
-53 54 0
53 54 0
35 -56 0
36 -56 0
-38 -56 0
-40 -56 0
45 -56 0
-47 -56 0
54 -56 0
55 -56 0
-35 -36 38 40 -45 47 -54 -55 56 0
35 -57 0
36 -57 0
-38 -57 0
-40 -57 0
45 -57 0
-47 -57 0
54 -57 0
-55 -57 0
-35 -36 38 40 -45 47 -54 55 57 0
58 -60 0
59 -60 0
-58 -59 60 0
58 -61 0
-59 -61 0
-58 59 61 0
58 62 0
-60 62 0
-61 62 0
-58 60 61 -62 0
35 -63 0
36 -63 0
-38 -63 0
40 -63 0
-41 -63 0
43 -63 0
-49 -63 0
-51 -63 0
62 -63 0
-35 -36 38 -40 41 -43 49 51 -62 63 0
-37 64 0
-39 64 0
-42 64 0
-44 64 0
-46 64 0
-48 64 0
-50 64 0
-52 64 0
-56 64 0
-57 64 0
-63 64 0
37 39 42 44 46 48 50 52 56 57 63 -64 0
30 -65 0
-31 -65 0
-33 -65 0
64 -65 0
-30 31 33 -64 65 0
30 -67 0
-31 -67 0
33 -67 0
-66 -67 0
-30 31 -33 66 67 0
30 -69 0
-31 -69 0
33 -69 0
66 -69 0
-68 -69 0
-30 31 -33 -66 68 69 0
30 -70 0
-31 -70 0
33 -70 0
66 -70 0
68 -70 0
-30 31 -33 -66 -68 70 0
-65 71 0
-67 71 0
-69 71 0
-70 71 0
65 67 69 70 -71 0
71 -73 0
72 -73 0
-71 -72 73 0
71 -74 0
-72 -74 0
-71 72 74 0
-32 75 0
-73 75 0
-74 75 0
32 73 74 -75 0
-76 77 0
76 77 0
24 -79 0
28 -79 0
75 -79 0
77 -79 0
78 -79 0
-24 -28 -75 -77 -78 79 0
-80 81 0
80 81 0
24 -82 0
28 -82 0
75 -82 0
77 -82 0
-78 -82 0
81 -82 0
-24 -28 -75 -77 78 -81 82 0
-79 83 0
-82 83 0
79 82 -83 0
83 -85 0
84 -85 0
-83 -84 85 0
83 -86 0
-84 -86 0
-83 84 86 0
24 87 0
-85 87 0
-86 87 0
-24 85 86 -87 0
8 -88 0
19 -88 0
21 -88 0
23 -88 0
87 -88 0
-8 -19 -21 -23 -87 88 0
-8 -89 0
19 -89 0
21 -89 0
23 -89 0
8 -19 -21 -23 89 0
-88 90 0
-89 90 0
88 89 -90 0
91 92 0
-91 92 0
7 -93 0
90 -93 0
92 -93 0
-7 -90 -92 93 0
-7 -94 0
90 -94 0
7 -90 94 0
-93 95 0
-94 95 0
93 94 -95 0
96 97 0
-96 97 0
6 -98 0
95 -98 0
97 -98 0
-6 -95 -97 98 0
-6 -99 0
95 -99 0
6 -95 99 0
-98 100 0
-99 100 0
98 99 -100 0
101 102 0
-101 102 0
5 -103 0
100 -103 0
102 -103 0
-5 -100 -102 103 0
-5 -104 0
100 -104 0
5 -100 104 0
-103 105 0
-104 105 0
103 104 -105 0
4 -106 0
105 -106 0
-4 -105 106 0
108 -109 0
100 -109 0
102 -109 0
-108 -100 -102 109 0
-108 -110 0
100 -110 0
108 -100 110 0
-109 111 0
-110 111 0
109 110 -111 0
112 113 0
-112 113 0
107 -114 0
111 -114 0
113 -114 0
-107 -111 -113 114 0
116 117 0
-116 117 0
115 -118 0
111 -118 0
117 -118 0
-115 -111 -117 118 0
-115 -119 0
111 -119 0
115 -111 119 0
-118 120 0
-119 120 0
118 119 -120 0
-107 -121 0
120 -121 0
107 -120 121 0
-114 122 0
-121 122 0
114 121 -122 0
-4 -123 0
122 -123 0
4 -122 123 0
-106 124 0
-123 124 0
106 123 -124 0
125 126 0
-125 126 0
3 -127 0
124 -127 0
126 -127 0
-3 -124 -126 127 0
-3 -128 0
124 -128 0
3 -124 128 0
-127 129 0
-128 129 0
127 128 -129 0
130 131 0
-130 131 0
2 -132 0
129 -132 0
131 -132 0
-2 -129 -131 132 0
134 135 0
-134 135 0
133 -136 0
129 -136 0
135 -136 0
-133 -129 -135 136 0
-133 -137 0
129 -137 0
133 -129 137 0
-136 138 0
-137 138 0
136 137 -138 0
-2 -139 0
138 -139 0
2 -138 139 0
-132 140 0
-139 140 0
132 139 -140 0
141 -143 0
142 -143 0
-141 -142 143 0
141 -144 0
-142 -144 0
-141 142 144 0
-143 145 0
-144 145 0
143 144 -145 0
145 -147 0
146 -147 0
-145 -146 147 0
145 -148 0
-146 -148 0
-145 146 148 0
-147 149 0
-148 149 0
147 148 -149 0
149 -152 0
-150 -152 0
151 -152 0
-149 150 -151 152 0
149 -153 0
-150 -153 0
-151 -153 0
-149 150 151 153 0
149 -155 0
150 -155 0
154 -155 0
-149 -150 -154 155 0
149 -156 0
150 -156 0
-154 -156 0
-149 -150 154 156 0
-152 157 0
-153 157 0
-155 157 0
-156 157 0
152 153 155 156 -157 0
157 -159 0
158 -159 0
-157 -158 159 0
157 -160 0
-158 -160 0
-157 158 160 0
-159 161 0
-160 161 0
159 160 -161 0
161 -163 0
162 -163 0
-161 -162 163 0
161 -165 0
-162 -165 0
164 -165 0
-161 162 -164 165 0
161 -167 0
-162 -167 0
-164 -167 0
166 -167 0
-161 162 164 -166 167 0
161 -169 0
-162 -169 0
-164 -169 0
-166 -169 0
168 -169 0
-161 162 164 166 -168 169 0
161 -172 0
-162 -172 0
-164 -172 0
-166 -172 0
-168 -172 0
170 -172 0
171 -172 0
-161 162 164 166 168 -170 -171 172 0
161 -173 0
-162 -173 0
-164 -173 0
-166 -173 0
-168 -173 0
170 -173 0
-171 -173 0
-161 162 164 166 168 -170 171 173 0
-172 174 0
-173 174 0
172 173 -174 0
174 -176 0
175 -176 0
-174 -175 176 0
174 -177 0
-175 -177 0
-174 175 177 0
-176 178 0
-177 178 0
176 177 -178 0
178 -180 0
179 -180 0
-178 -179 180 0
161 -182 0
-162 -182 0
-164 -182 0
-166 -182 0
-168 -182 0
-170 -182 0
181 -182 0
-161 162 164 166 168 170 -181 182 0
161 -183 0
-162 -183 0
-164 -183 0
-166 -183 0
-168 -183 0
-170 -183 0
-181 -183 0
-161 162 164 166 168 170 181 183 0
-182 184 0
-183 184 0
182 183 -184 0
184 -186 0
185 -186 0
-184 -185 186 0
184 -187 0
-185 -187 0
-184 185 187 0
-186 188 0
-187 188 0
186 187 -188 0
188 -190 0
189 -190 0
-188 -189 190 0
178 -191 0
-179 -191 0
-178 179 191 0
188 -192 0
-189 -192 0
-188 189 192 0
-180 193 0
-190 193 0
-191 193 0
-192 193 0
180 190 191 192 -193 0
193 -195 0
-194 -195 0
-193 194 195 0
193 -197 0
194 -197 0
196 -197 0
-193 -194 -196 197 0
193 -198 0
194 -198 0
-196 -198 0
-193 -194 196 198 0
141 199 0
-163 199 0
-165 199 0
-167 199 0
-169 199 0
-195 199 0
-197 199 0
-198 199 0
-141 163 165 167 169 195 197 198 -199 0
200 201 0
-200 201 0
201 -204 0
-202 -204 0
203 -204 0
-201 202 -203 204 0
201 -205 0
-202 -205 0
-203 -205 0
-201 202 203 205 0
201 -207 0
202 -207 0
206 -207 0
-201 -202 -206 207 0
201 -208 0
202 -208 0
-206 -208 0
-201 -202 206 208 0
-204 209 0
-205 209 0
-207 209 0
-208 209 0
204 205 207 208 -209 0
209 -211 0
210 -211 0
-209 -210 211 0
209 -212 0
-210 -212 0
-209 210 212 0
-211 213 0
-212 213 0
211 212 -213 0
140 -214 0
199 -214 0
213 -214 0
-140 -199 -213 214 0
-15 215 0
15 215 0
9 -216 0
215 -216 0
-9 -215 216 0
-216 217 0
9 217 0
216 -9 -217 0
217 -218 0
-24 -218 0
-217 24 218 0
217 -219 0
30 -219 0
31 -219 0
-217 -30 -31 219 0
217 -220 0
30 -220 0
-31 -220 0
33 -220 0
66 -220 0
-68 -220 0
-217 -30 31 -33 -66 68 220 0
217 -221 0
30 -221 0
-31 -221 0
33 -221 0
66 -221 0
68 -221 0
-217 -30 31 -33 -66 -68 221 0
217 -222 0
30 -222 0
-31 -222 0
33 -222 0
-66 -222 0
-217 -30 31 -33 66 222 0
217 -223 0
34 -223 0
-217 -34 223 0
217 -224 0
-34 -224 0
-217 34 224 0
-223 225 0
-224 225 0
223 224 -225 0
-37 226 0
-39 226 0
-42 226 0
-44 226 0
-46 226 0
-48 226 0
-50 226 0
-52 226 0
37 39 42 44 46 48 50 52 -226 0
225 -227 0
226 -227 0
-225 -226 227 0
225 -228 0
35 -228 0
36 -228 0
-38 -228 0
40 -228 0
-41 -228 0
43 -228 0
-49 -228 0
-51 -228 0
62 -228 0
-225 -35 -36 38 -40 41 -43 49 51 -62 228 0
-56 229 0
-57 229 0
56 57 -229 0
225 -230 0
229 -230 0
-225 -229 230 0
-227 231 0
-228 231 0
-230 231 0
227 228 230 -231 0
231 -232 0
30 -232 0
-31 -232 0
-33 -232 0
64 -232 0
-231 -30 31 33 -64 232 0
-220 233 0
-221 233 0
-222 233 0
-232 233 0
220 221 222 232 -233 0
233 -234 0
71 -234 0
72 -234 0
-233 -71 -72 234 0
233 -235 0
71 -235 0
-72 -235 0
-233 -71 72 235 0
-219 236 0
-234 236 0
-235 236 0
219 234 235 -236 0
236 -237 0
24 -237 0
28 -237 0
75 -237 0
77 -237 0
78 -237 0
-236 -24 -28 -75 -77 -78 237 0
236 -238 0
24 -238 0
28 -238 0
75 -238 0
77 -238 0
-78 -238 0
81 -238 0
-236 -24 -28 -75 -77 78 -81 238 0
-237 239 0
-238 239 0
237 238 -239 0
-85 240 0
-86 240 0
85 86 -240 0
239 -241 0
240 -241 0
-239 -240 241 0
-218 242 0
-241 242 0
218 241 -242 0
8 -243 0
242 -243 0
-8 -242 243 0
-8 -244 0
217 -244 0
8 -217 244 0
-243 245 0
-244 245 0
243 244 -245 0
245 -246 0
-91 -246 0
-245 91 246 0
245 -247 0
91 -247 0
-245 -91 247 0
-246 248 0
-247 248 0
246 247 -248 0
7 -249 0
248 -249 0
-7 -248 249 0
-7 -250 0
245 -250 0
7 -245 250 0
-249 251 0
-250 251 0
249 250 -251 0
251 -252 0
-96 -252 0
-251 96 252 0
251 -253 0
96 -253 0
-251 -96 253 0
-252 254 0
-253 254 0
252 253 -254 0
6 -255 0
254 -255 0
-6 -254 255 0
-6 -256 0
251 -256 0
6 -251 256 0
-255 257 0
-256 257 0
255 256 -257 0
257 -258 0
-101 -258 0
-257 101 258 0
257 -259 0
101 -259 0
-257 -101 259 0
-258 260 0
-259 260 0
258 259 -260 0
5 -261 0
260 -261 0
-5 -260 261 0
-5 -262 0
257 -262 0
5 -257 262 0
-261 263 0
-262 263 0
261 262 -263 0
4 -264 0
263 -264 0
-4 -263 264 0
108 -265 0
260 -265 0
-108 -260 265 0
-108 -266 0
257 -266 0
108 -257 266 0
-265 267 0
-266 267 0
265 266 -267 0
267 -268 0
-112 -268 0
-267 112 268 0
267 -269 0
112 -269 0
-267 -112 269 0
-268 270 0
-269 270 0
268 269 -270 0
107 -271 0
270 -271 0
-107 -270 271 0
267 -272 0
-116 -272 0
-267 116 272 0
267 -273 0
116 -273 0
-267 -116 273 0
-272 274 0
-273 274 0
272 273 -274 0
115 -275 0
274 -275 0
-115 -274 275 0
-115 -276 0
267 -276 0
115 -267 276 0
-275 277 0
-276 277 0
275 276 -277 0
-107 -278 0
277 -278 0
107 -277 278 0
-271 279 0
-278 279 0
271 278 -279 0
-4 -280 0
279 -280 0
4 -279 280 0
-264 281 0
-280 281 0
264 280 -281 0
281 -282 0
-125 -282 0
-281 125 282 0
281 -283 0
125 -283 0
-281 -125 283 0
-282 284 0
-283 284 0
282 283 -284 0
3 -285 0
284 -285 0
-3 -284 285 0
-3 -286 0
281 -286 0
3 -281 286 0
-285 287 0
-286 287 0
285 286 -287 0
287 -288 0
-130 -288 0
-287 130 288 0
287 -289 0
130 -289 0
-287 -130 289 0
-288 290 0
-289 290 0
288 289 -290 0
2 -291 0
290 -291 0
-2 -290 291 0
287 -292 0
-134 -292 0
-287 134 292 0
287 -293 0
134 -293 0
-287 -134 293 0
-292 294 0
-293 294 0
292 293 -294 0
133 -295 0
294 -295 0
-133 -294 295 0
-133 -296 0
287 -296 0
133 -287 296 0
-295 297 0
-296 297 0
295 296 -297 0
-2 -298 0
297 -298 0
2 -297 298 0
-291 299 0
-298 299 0
291 298 -299 0
299 -300 0
-141 -300 0
-299 141 300 0
299 -301 0
141 -301 0
142 -301 0
-299 -141 -142 301 0
299 -302 0
141 -302 0
-142 -302 0
-299 -141 142 302 0
-301 303 0
-302 303 0
301 302 -303 0
303 -304 0
145 -304 0
146 -304 0
-303 -145 -146 304 0
303 -305 0
145 -305 0
-146 -305 0
-303 -145 146 305 0
-304 306 0
-305 306 0
304 305 -306 0
306 -307 0
157 -307 0
158 -307 0
-306 -157 -158 307 0
306 -308 0
157 -308 0
-158 -308 0
-306 -157 158 308 0
-307 309 0
-308 309 0
307 308 -309 0
-163 310 0
-165 310 0
-167 310 0
-169 310 0
163 165 167 169 -310 0
309 -311 0
310 -311 0
-309 -310 311 0
309 -312 0
161 -312 0
-162 -312 0
-164 -312 0
-166 -312 0
-168 -312 0
-170 -312 0
181 -312 0
-309 -161 162 164 166 168 170 -181 312 0
309 -313 0
161 -313 0
-162 -313 0
-164 -313 0
-166 -313 0
-168 -313 0
-170 -313 0
-181 -313 0
-309 -161 162 164 166 168 170 181 313 0
-312 314 0
-313 314 0
312 313 -314 0
314 -315 0
184 -315 0
185 -315 0
-314 -184 -185 315 0
314 -316 0
184 -316 0
-185 -316 0
-314 -184 185 316 0
-315 317 0
-316 317 0
315 316 -317 0
317 -318 0
188 -318 0
189 -318 0
-317 -188 -189 318 0
317 -319 0
188 -319 0
-189 -319 0
-317 -188 189 319 0
309 -320 0
161 -320 0
-162 -320 0
-164 -320 0
-166 -320 0
-168 -320 0
170 -320 0
171 -320 0
-309 -161 162 164 166 168 -170 -171 320 0
309 -321 0
161 -321 0
-162 -321 0
-164 -321 0
-166 -321 0
-168 -321 0
170 -321 0
-171 -321 0
-309 -161 162 164 166 168 -170 171 321 0
-320 322 0
-321 322 0
320 321 -322 0
322 -323 0
174 -323 0
175 -323 0
-322 -174 -175 323 0
322 -324 0
174 -324 0
-175 -324 0
-322 -174 175 324 0
-323 325 0
-324 325 0
323 324 -325 0
325 -326 0
178 -326 0
179 -326 0
-325 -178 -179 326 0
325 -327 0
178 -327 0
-179 -327 0
-325 -178 179 327 0
-318 328 0
-319 328 0
-326 328 0
-327 328 0
318 319 326 327 -328 0
-197 329 0
-198 329 0
197 198 -329 0
-195 330 0
-329 330 0
195 329 -330 0
328 -331 0
330 -331 0
-328 -330 331 0
-300 332 0
-311 332 0
-331 332 0
300 311 331 -332 0
332 -333 0
-200 -333 0
-332 200 333 0
332 -334 0
200 -334 0
-332 -200 334 0
-333 335 0
-334 335 0
333 334 -335 0
-15 336 0
15 336 0
9 -337 0
336 -337 0
-9 -336 337 0
-337 338 0
9 338 0
337 -9 -338 0
338 -339 0
-24 -339 0
-338 24 339 0
338 -340 0
30 -340 0
31 -340 0
-338 -30 -31 340 0
338 -341 0
30 -341 0
-31 -341 0
33 -341 0
66 -341 0
-68 -341 0
-338 -30 31 -33 -66 68 341 0
338 -342 0
30 -342 0
-31 -342 0
33 -342 0
66 -342 0
68 -342 0
-338 -30 31 -33 -66 -68 342 0
338 -343 0
30 -343 0
-31 -343 0
33 -343 0
-66 -343 0
-338 -30 31 -33 66 343 0
338 -344 0
34 -344 0
-338 -34 344 0
338 -345 0
-34 -345 0
-338 34 345 0
-344 346 0
-345 346 0
344 345 -346 0
-37 347 0
-39 347 0
-42 347 0
-44 347 0
-46 347 0
-48 347 0
-50 347 0
-52 347 0
37 39 42 44 46 48 50 52 -347 0
346 -348 0
347 -348 0
-346 -347 348 0
346 -349 0
35 -349 0
36 -349 0
-38 -349 0
40 -349 0
-41 -349 0
43 -349 0
-49 -349 0
-51 -349 0
62 -349 0
-346 -35 -36 38 -40 41 -43 49 51 -62 349 0
346 -350 0
229 -350 0
-346 -229 350 0
-348 351 0
-349 351 0
-350 351 0
348 349 350 -351 0
351 -352 0
30 -352 0
-31 -352 0
-33 -352 0
64 -352 0
-351 -30 31 33 -64 352 0
-341 353 0
-342 353 0
-343 353 0
-352 353 0
341 342 343 352 -353 0
353 -354 0
71 -354 0
72 -354 0
-353 -71 -72 354 0
353 -355 0
71 -355 0
-72 -355 0
-353 -71 72 355 0
-340 356 0
-354 356 0
-355 356 0
340 354 355 -356 0
356 -357 0
24 -357 0
28 -357 0
75 -357 0
77 -357 0
78 -357 0
-356 -24 -28 -75 -77 -78 357 0
356 -358 0
24 -358 0
28 -358 0
75 -358 0
77 -358 0
-78 -358 0
81 -358 0
-356 -24 -28 -75 -77 78 -81 358 0
-357 359 0
-358 359 0
357 358 -359 0
359 -360 0
240 -360 0
-359 -240 360 0
-339 361 0
-360 361 0
339 360 -361 0
8 -362 0
361 -362 0
-8 -361 362 0
-8 -363 0
338 -363 0
8 -338 363 0
-362 364 0
-363 364 0
362 363 -364 0
364 -365 0
-91 -365 0
-364 91 365 0
364 -366 0
91 -366 0
-364 -91 366 0
-365 367 0
-366 367 0
365 366 -367 0
7 -368 0
367 -368 0
-7 -367 368 0
-7 -369 0
364 -369 0
7 -364 369 0
-368 370 0
-369 370 0
368 369 -370 0
370 -371 0
-96 -371 0
-370 96 371 0
370 -372 0
96 -372 0
-370 -96 372 0
-371 373 0
-372 373 0
371 372 -373 0
6 -374 0
373 -374 0
-6 -373 374 0
-6 -375 0
370 -375 0
6 -370 375 0
-374 376 0
-375 376 0
374 375 -376 0
376 -377 0
-101 -377 0
-376 101 377 0
376 -378 0
101 -378 0
-376 -101 378 0
-377 379 0
-378 379 0
377 378 -379 0
5 -380 0
379 -380 0
-5 -379 380 0
-5 -381 0
376 -381 0
5 -376 381 0
-380 382 0
-381 382 0
380 381 -382 0
4 -383 0
382 -383 0
-4 -382 383 0
108 -384 0
379 -384 0
-108 -379 384 0
-108 -385 0
376 -385 0
108 -376 385 0
-384 386 0
-385 386 0
384 385 -386 0
386 -387 0
-112 -387 0
-386 112 387 0
386 -388 0
112 -388 0
-386 -112 388 0
-387 389 0
-388 389 0
387 388 -389 0
107 -390 0
389 -390 0
-107 -389 390 0
386 -391 0
-116 -391 0
-386 116 391 0
386 -392 0
116 -392 0
-386 -116 392 0
-391 393 0
-392 393 0
391 392 -393 0
115 -394 0
393 -394 0
-115 -393 394 0
-115 -395 0
386 -395 0
115 -386 395 0
-394 396 0
-395 396 0
394 395 -396 0
-107 -397 0
396 -397 0
107 -396 397 0
-390 398 0
-397 398 0
390 397 -398 0
-4 -399 0
398 -399 0
4 -398 399 0
-383 400 0
-399 400 0
383 399 -400 0
400 -401 0
-125 -401 0
-400 125 401 0
400 -402 0
125 -402 0
-400 -125 402 0
-401 403 0
-402 403 0
401 402 -403 0
3 -404 0
403 -404 0
-3 -403 404 0
-3 -405 0
400 -405 0
3 -400 405 0
-404 406 0
-405 406 0
404 405 -406 0
406 -407 0
-130 -407 0
-406 130 407 0
406 -408 0
130 -408 0
-406 -130 408 0
-407 409 0
-408 409 0
407 408 -409 0
2 -410 0
409 -410 0
-2 -409 410 0
406 -411 0
-134 -411 0
-406 134 411 0
406 -412 0
134 -412 0
-406 -134 412 0
-411 413 0
-412 413 0
411 412 -413 0
133 -414 0
413 -414 0
-133 -413 414 0
-133 -415 0
406 -415 0
133 -406 415 0
-414 416 0
-415 416 0
414 415 -416 0
-2 -417 0
416 -417 0
2 -416 417 0
-410 418 0
-417 418 0
410 417 -418 0
418 -419 0
-141 -419 0
-418 141 419 0
418 -420 0
141 -420 0
142 -420 0
-418 -141 -142 420 0
418 -421 0
141 -421 0
-142 -421 0
-418 -141 142 421 0
-420 422 0
-421 422 0
420 421 -422 0
422 -423 0
145 -423 0
146 -423 0
-422 -145 -146 423 0
422 -424 0
145 -424 0
-146 -424 0
-422 -145 146 424 0
-423 425 0
-424 425 0
423 424 -425 0
425 -426 0
157 -426 0
158 -426 0
-425 -157 -158 426 0
425 -427 0
157 -427 0
-158 -427 0
-425 -157 158 427 0
-426 428 0
-427 428 0
426 427 -428 0
-163 429 0
-165 429 0
-167 429 0
-169 429 0
163 165 167 169 -429 0
428 -430 0
429 -430 0
-428 -429 430 0
428 -431 0
161 -431 0
-162 -431 0
-164 -431 0
-166 -431 0
-168 -431 0
-170 -431 0
181 -431 0
-428 -161 162 164 166 168 170 -181 431 0
428 -432 0
161 -432 0
-162 -432 0
-164 -432 0
-166 -432 0
-168 -432 0
-170 -432 0
-181 -432 0
-428 -161 162 164 166 168 170 181 432 0
-431 433 0
-432 433 0
431 432 -433 0
433 -434 0
184 -434 0
185 -434 0
-433 -184 -185 434 0
433 -435 0
184 -435 0
-185 -435 0
-433 -184 185 435 0
-434 436 0
-435 436 0
434 435 -436 0
436 -437 0
188 -437 0
189 -437 0
-436 -188 -189 437 0
436 -438 0
188 -438 0
-189 -438 0
-436 -188 189 438 0
428 -439 0
161 -439 0
-162 -439 0
-164 -439 0
-166 -439 0
-168 -439 0
170 -439 0
171 -439 0
-428 -161 162 164 166 168 -170 -171 439 0
428 -440 0
161 -440 0
-162 -440 0
-164 -440 0
-166 -440 0
-168 -440 0
170 -440 0
-171 -440 0
-428 -161 162 164 166 168 -170 171 440 0
-439 441 0
-440 441 0
439 440 -441 0
441 -442 0
174 -442 0
175 -442 0
-441 -174 -175 442 0
441 -443 0
174 -443 0
-175 -443 0
-441 -174 175 443 0
-442 444 0
-443 444 0
442 443 -444 0
444 -445 0
178 -445 0
179 -445 0
-444 -178 -179 445 0
444 -446 0
178 -446 0
-179 -446 0
-444 -178 179 446 0
-437 447 0
-438 447 0
-445 447 0
-446 447 0
437 438 445 446 -447 0
-195 448 0
-329 448 0
195 329 -448 0
447 -449 0
448 -449 0
-447 -448 449 0
-419 450 0
-430 450 0
-449 450 0
419 430 449 -450 0
450 -451 0
-200 -451 0
-450 200 451 0
450 -452 0
200 -452 0
-450 -200 452 0
-451 453 0
-452 453 0
451 452 -453 0
462 -464 0
463 -464 0
-462 -463 464 0
462 -465 0
-463 -465 0
-462 463 465 0
462 466 0
-464 466 0
-465 466 0
-462 464 465 -466 0
-467 468 0
467 468 0
461 -469 0
466 -469 0
468 -469 0
-461 -466 -468 469 0
-461 -470 0
466 -470 0
461 -466 470 0
-469 471 0
-470 471 0
469 470 -471 0
-472 473 0
472 473 0
-474 475 0
474 475 0
477 -479 0
-478 -479 0
-477 478 479 0
477 480 0
-479 480 0
-477 479 -480 0
-481 482 0
481 482 0
482 -484 0
483 -484 0
-482 -483 484 0
-486 487 0
486 487 0
487 -489 0
-488 -489 0
-487 488 489 0
487 -491 0
488 -491 0
490 -491 0
-487 -488 -490 491 0
487 -494 0
488 -494 0
-490 -494 0
492 -494 0
493 -494 0
-487 -488 490 -492 -493 494 0
487 -496 0
488 -496 0
-490 -496 0
492 -496 0
-493 -496 0
-495 -496 0
-487 -488 490 -492 493 495 496 0
487 -498 0
488 -498 0
-490 -498 0
-492 -498 0
-497 -498 0
-487 -488 490 492 497 498 0
487 -500 0
488 -500 0
-490 -500 0
-492 -500 0
497 -500 0
499 -500 0
-487 -488 490 492 -497 -499 500 0
487 -502 0
488 -502 0
-490 -502 0
492 -502 0
-493 -502 0
495 -502 0
501 -502 0
-487 -488 490 -492 493 -495 -501 502 0
487 -504 0
488 -504 0
-490 -504 0
492 -504 0
-493 -504 0
495 -504 0
-501 -504 0
503 -504 0
-487 -488 490 -492 493 -495 501 -503 504 0
-505 506 0
505 506 0
487 -508 0
488 -508 0
-490 -508 0
-492 -508 0
497 -508 0
-499 -508 0
506 -508 0
507 -508 0
-487 -488 490 492 -497 499 -506 -507 508 0
487 -509 0
488 -509 0
-490 -509 0
-492 -509 0
497 -509 0
-499 -509 0
506 -509 0
-507 -509 0
-487 -488 490 492 -497 499 -506 507 509 0
510 -512 0
511 -512 0
-510 -511 512 0
510 -513 0
-511 -513 0
-510 511 513 0
510 514 0
-512 514 0
-513 514 0
-510 512 513 -514 0
487 -515 0
488 -515 0
-490 -515 0
492 -515 0
-493 -515 0
495 -515 0
-501 -515 0
-503 -515 0
514 -515 0
-487 -488 490 -492 493 -495 501 503 -514 515 0
-489 516 0
-491 516 0
-494 516 0
-496 516 0
-498 516 0
-500 516 0
-502 516 0
-504 516 0
-508 516 0
-509 516 0
-515 516 0
489 491 494 496 498 500 502 504 508 509 515 -516 0
482 -517 0
-483 -517 0
-485 -517 0
516 -517 0
-482 483 485 -516 517 0
482 -519 0
-483 -519 0
485 -519 0
-518 -519 0
-482 483 -485 518 519 0
482 -521 0
-483 -521 0
485 -521 0
518 -521 0
-520 -521 0
-482 483 -485 -518 520 521 0
482 -522 0
-483 -522 0
485 -522 0
518 -522 0
520 -522 0
-482 483 -485 -518 -520 522 0
-517 523 0
-519 523 0
-521 523 0
-522 523 0
517 519 521 522 -523 0
523 -525 0
524 -525 0
-523 -524 525 0
523 -526 0
-524 -526 0
-523 524 526 0
-484 527 0
-525 527 0
-526 527 0
484 525 526 -527 0
-528 529 0
528 529 0
476 -531 0
480 -531 0
527 -531 0
529 -531 0
530 -531 0
-476 -480 -527 -529 -530 531 0
-532 533 0
532 533 0
476 -534 0
480 -534 0
527 -534 0
529 -534 0
-530 -534 0
533 -534 0
-476 -480 -527 -529 530 -533 534 0
-531 535 0
-534 535 0
531 534 -535 0
535 -537 0
536 -537 0
-535 -536 537 0
535 -538 0
-536 -538 0
-535 536 538 0
476 539 0
-537 539 0
-538 539 0
-476 537 538 -539 0
460 -540 0
471 -540 0
473 -540 0
475 -540 0
539 -540 0
-460 -471 -473 -475 -539 540 0
-460 -541 0
471 -541 0
473 -541 0
475 -541 0
460 -471 -473 -475 541 0
-540 542 0
-541 542 0
540 541 -542 0
543 544 0
-543 544 0
459 -545 0
542 -545 0
544 -545 0
-459 -542 -544 545 0
-459 -546 0
542 -546 0
459 -542 546 0
-545 547 0
-546 547 0
545 546 -547 0
548 549 0
-548 549 0
458 -550 0
547 -550 0
549 -550 0
-458 -547 -549 550 0
-458 -551 0
547 -551 0
458 -547 551 0
-550 552 0
-551 552 0
550 551 -552 0
553 554 0
-553 554 0
457 -555 0
552 -555 0
554 -555 0
-457 -552 -554 555 0
-457 -556 0
552 -556 0
457 -552 556 0
-555 557 0
-556 557 0
555 556 -557 0
456 -558 0
557 -558 0
-456 -557 558 0
560 -561 0
552 -561 0
554 -561 0
-560 -552 -554 561 0
-560 -562 0
552 -562 0
560 -552 562 0
-561 563 0
-562 563 0
561 562 -563 0
564 565 0
-564 565 0
559 -566 0
563 -566 0
565 -566 0
-559 -563 -565 566 0
568 569 0
-568 569 0
567 -570 0
563 -570 0
569 -570 0
-567 -563 -569 570 0
-567 -571 0
563 -571 0
567 -563 571 0
-570 572 0
-571 572 0
570 571 -572 0
-559 -573 0
572 -573 0
559 -572 573 0
-566 574 0
-573 574 0
566 573 -574 0
-456 -575 0
574 -575 0
456 -574 575 0
-558 576 0
-575 576 0
558 575 -576 0
577 578 0
-577 578 0
455 -579 0
576 -579 0
578 -579 0
-455 -576 -578 579 0
-455 -580 0
576 -580 0
455 -576 580 0
-579 581 0
-580 581 0
579 580 -581 0
582 583 0
-582 583 0
454 -584 0
581 -584 0
583 -584 0
-454 -581 -583 584 0
586 587 0
-586 587 0
585 -588 0
581 -588 0
587 -588 0
-585 -581 -587 588 0
-585 -589 0
581 -589 0
585 -581 589 0
-588 590 0
-589 590 0
588 589 -590 0
-454 -591 0
590 -591 0
454 -590 591 0
-584 592 0
-591 592 0
584 591 -592 0
-467 593 0
467 593 0
461 -594 0
593 -594 0
-461 -593 594 0
-594 595 0
461 595 0
594 -461 -595 0
595 -596 0
-476 -596 0
-595 476 596 0
595 -597 0
482 -597 0
483 -597 0
-595 -482 -483 597 0
595 -598 0
482 -598 0
-483 -598 0
485 -598 0
518 -598 0
-520 -598 0
-595 -482 483 -485 -518 520 598 0
595 -599 0
482 -599 0
-483 -599 0
485 -599 0
518 -599 0
520 -599 0
-595 -482 483 -485 -518 -520 599 0
595 -600 0
482 -600 0
-483 -600 0
485 -600 0
-518 -600 0
-595 -482 483 -485 518 600 0
595 -601 0
486 -601 0
-595 -486 601 0
595 -602 0
-486 -602 0
-595 486 602 0
-601 603 0
-602 603 0
601 602 -603 0
-489 604 0
-491 604 0
-494 604 0
-496 604 0
-498 604 0
-500 604 0
-502 604 0
-504 604 0
489 491 494 496 498 500 502 504 -604 0
603 -605 0
604 -605 0
-603 -604 605 0
603 -606 0
487 -606 0
488 -606 0
-490 -606 0
492 -606 0
-493 -606 0
495 -606 0
-501 -606 0
-503 -606 0
514 -606 0
-603 -487 -488 490 -492 493 -495 501 503 -514 606 0
-508 607 0
-509 607 0
508 509 -607 0
603 -608 0
607 -608 0
-603 -607 608 0
-605 609 0
-606 609 0
-608 609 0
605 606 608 -609 0
609 -610 0
482 -610 0
-483 -610 0
-485 -610 0
516 -610 0
-609 -482 483 485 -516 610 0
-598 611 0
-599 611 0
-600 611 0
-610 611 0
598 599 600 610 -611 0
611 -612 0
523 -612 0
524 -612 0
-611 -523 -524 612 0
611 -613 0
523 -613 0
-524 -613 0
-611 -523 524 613 0
-597 614 0
-612 614 0
-613 614 0
597 612 613 -614 0
614 -615 0
476 -615 0
480 -615 0
527 -615 0
529 -615 0
530 -615 0
-614 -476 -480 -527 -529 -530 615 0
614 -616 0
476 -616 0
480 -616 0
527 -616 0
529 -616 0
-530 -616 0
533 -616 0
-614 -476 -480 -527 -529 530 -533 616 0
-615 617 0
-616 617 0
615 616 -617 0
-537 618 0
-538 618 0
537 538 -618 0
617 -619 0
618 -619 0
-617 -618 619 0
-596 620 0
-619 620 0
596 619 -620 0
460 -621 0
620 -621 0
-460 -620 621 0
-460 -622 0
595 -622 0
460 -595 622 0
-621 623 0
-622 623 0
621 622 -623 0
623 -624 0
-543 -624 0
-623 543 624 0
623 -625 0
543 -625 0
-623 -543 625 0
-624 626 0
-625 626 0
624 625 -626 0
459 -627 0
626 -627 0
-459 -626 627 0
-459 -628 0
623 -628 0
459 -623 628 0
-627 629 0
-628 629 0
627 628 -629 0
629 -630 0
-548 -630 0
-629 548 630 0
629 -631 0
548 -631 0
-629 -548 631 0
-630 632 0
-631 632 0
630 631 -632 0
458 -633 0
632 -633 0
-458 -632 633 0
-458 -634 0
629 -634 0
458 -629 634 0
-633 635 0
-634 635 0
633 634 -635 0
635 -636 0
-553 -636 0
-635 553 636 0
635 -637 0
553 -637 0
-635 -553 637 0
-636 638 0
-637 638 0
636 637 -638 0
457 -639 0
638 -639 0
-457 -638 639 0
-457 -640 0
635 -640 0
457 -635 640 0
-639 641 0
-640 641 0
639 640 -641 0
456 -642 0
641 -642 0
-456 -641 642 0
560 -643 0
638 -643 0
-560 -638 643 0
-560 -644 0
635 -644 0
560 -635 644 0
-643 645 0
-644 645 0
643 644 -645 0
645 -646 0
-564 -646 0
-645 564 646 0
645 -647 0
564 -647 0
-645 -564 647 0
-646 648 0
-647 648 0
646 647 -648 0
559 -649 0
648 -649 0
-559 -648 649 0
645 -650 0
-568 -650 0
-645 568 650 0
645 -651 0
568 -651 0
-645 -568 651 0
-650 652 0
-651 652 0
650 651 -652 0
567 -653 0
652 -653 0
-567 -652 653 0
-567 -654 0
645 -654 0
567 -645 654 0
-653 655 0
-654 655 0
653 654 -655 0
-559 -656 0
655 -656 0
559 -655 656 0
-649 657 0
-656 657 0
649 656 -657 0
-456 -658 0
657 -658 0
456 -657 658 0
-642 659 0
-658 659 0
642 658 -659 0
659 -660 0
-577 -660 0
-659 577 660 0
659 -661 0
577 -661 0
-659 -577 661 0
-660 662 0
-661 662 0
660 661 -662 0
455 -663 0
662 -663 0
-455 -662 663 0
-455 -664 0
659 -664 0
455 -659 664 0
-663 665 0
-664 665 0
663 664 -665 0
665 -666 0
-582 -666 0
-665 582 666 0
665 -667 0
582 -667 0
-665 -582 667 0
-666 668 0
-667 668 0
666 667 -668 0
454 -669 0
668 -669 0
-454 -668 669 0
665 -670 0
-586 -670 0
-665 586 670 0
665 -671 0
586 -671 0
-665 -586 671 0
-670 672 0
-671 672 0
670 671 -672 0
585 -673 0
672 -673 0
-585 -672 673 0
-585 -674 0
665 -674 0
585 -665 674 0
-673 675 0
-674 675 0
673 674 -675 0
-454 -676 0
675 -676 0
454 -675 676 0
-669 677 0
-676 677 0
669 676 -677 0
-467 678 0
467 678 0
461 -679 0
678 -679 0
-461 -678 679 0
-679 680 0
461 680 0
679 -461 -680 0
680 -681 0
-476 -681 0
-680 476 681 0
680 -682 0
482 -682 0
483 -682 0
-680 -482 -483 682 0
680 -683 0
482 -683 0
-483 -683 0
485 -683 0
518 -683 0
-520 -683 0
-680 -482 483 -485 -518 520 683 0
680 -684 0
482 -684 0
-483 -684 0
485 -684 0
518 -684 0
520 -684 0
-680 -482 483 -485 -518 -520 684 0
680 -685 0
482 -685 0
-483 -685 0
485 -685 0
-518 -685 0
-680 -482 483 -485 518 685 0
680 -686 0
486 -686 0
-680 -486 686 0
680 -687 0
-486 -687 0
-680 486 687 0
-686 688 0
-687 688 0
686 687 -688 0
-489 689 0
-491 689 0
-494 689 0
-496 689 0
-498 689 0
-500 689 0
-502 689 0
-504 689 0
489 491 494 496 498 500 502 504 -689 0
688 -690 0
689 -690 0
-688 -689 690 0
688 -691 0
487 -691 0
488 -691 0
-490 -691 0
492 -691 0
-493 -691 0
495 -691 0
-501 -691 0
-503 -691 0
514 -691 0
-688 -487 -488 490 -492 493 -495 501 503 -514 691 0
688 -692 0
607 -692 0
-688 -607 692 0
-690 693 0
-691 693 0
-692 693 0
690 691 692 -693 0
693 -694 0
482 -694 0
-483 -694 0
-485 -694 0
516 -694 0
-693 -482 483 485 -516 694 0
-683 695 0
-684 695 0
-685 695 0
-694 695 0
683 684 685 694 -695 0
695 -696 0
523 -696 0
524 -696 0
-695 -523 -524 696 0
695 -697 0
523 -697 0
-524 -697 0
-695 -523 524 697 0
-682 698 0
-696 698 0
-697 698 0
682 696 697 -698 0
698 -699 0
476 -699 0
480 -699 0
527 -699 0
529 -699 0
530 -699 0
-698 -476 -480 -527 -529 -530 699 0
698 -700 0
476 -700 0
480 -700 0
527 -700 0
529 -700 0
-530 -700 0
533 -700 0
-698 -476 -480 -527 -529 530 -533 700 0
-699 701 0
-700 701 0
699 700 -701 0
701 -702 0
618 -702 0
-701 -618 702 0
-681 703 0
-702 703 0
681 702 -703 0
460 -704 0
703 -704 0
-460 -703 704 0
-460 -705 0
680 -705 0
460 -680 705 0
-704 706 0
-705 706 0
704 705 -706 0
706 -707 0
-543 -707 0
-706 543 707 0
706 -708 0
543 -708 0
-706 -543 708 0
-707 709 0
-708 709 0
707 708 -709 0
459 -710 0
709 -710 0
-459 -709 710 0
-459 -711 0
706 -711 0
459 -706 711 0
-710 712 0
-711 712 0
710 711 -712 0
712 -713 0
-548 -713 0
-712 548 713 0
712 -714 0
548 -714 0
-712 -548 714 0
-713 715 0
-714 715 0
713 714 -715 0
458 -716 0
715 -716 0
-458 -715 716 0
-458 -717 0
712 -717 0
458 -712 717 0
-716 718 0
-717 718 0
716 717 -718 0
718 -719 0
-553 -719 0
-718 553 719 0
718 -720 0
553 -720 0
-718 -553 720 0
-719 721 0
-720 721 0
719 720 -721 0
457 -722 0
721 -722 0
-457 -721 722 0
-457 -723 0
718 -723 0
457 -718 723 0
-722 724 0
-723 724 0
722 723 -724 0
456 -725 0
724 -725 0
-456 -724 725 0
560 -726 0
721 -726 0
-560 -721 726 0
-560 -727 0
718 -727 0
560 -718 727 0
-726 728 0
-727 728 0
726 727 -728 0
728 -729 0
-564 -729 0
-728 564 729 0
728 -730 0
564 -730 0
-728 -564 730 0
-729 731 0
-730 731 0
729 730 -731 0
559 -732 0
731 -732 0
-559 -731 732 0
728 -733 0
-568 -733 0
-728 568 733 0
728 -734 0
568 -734 0
-728 -568 734 0
-733 735 0
-734 735 0
733 734 -735 0
567 -736 0
735 -736 0
-567 -735 736 0
-567 -737 0
728 -737 0
567 -728 737 0
-736 738 0
-737 738 0
736 737 -738 0
-559 -739 0
738 -739 0
559 -738 739 0
-732 740 0
-739 740 0
732 739 -740 0
-456 -741 0
740 -741 0
456 -740 741 0
-725 742 0
-741 742 0
725 741 -742 0
742 -743 0
-577 -743 0
-742 577 743 0
742 -744 0
577 -744 0
-742 -577 744 0
-743 745 0
-744 745 0
743 744 -745 0
455 -746 0
745 -746 0
-455 -745 746 0
-455 -747 0
742 -747 0
455 -742 747 0
-746 748 0
-747 748 0
746 747 -748 0
748 -749 0
-582 -749 0
-748 582 749 0
748 -750 0
582 -750 0
-748 -582 750 0
-749 751 0
-750 751 0
749 750 -751 0
454 -752 0
751 -752 0
-454 -751 752 0
748 -753 0
-586 -753 0
-748 586 753 0
748 -754 0
586 -754 0
-748 -586 754 0
-753 755 0
-754 755 0
753 754 -755 0
585 -756 0
755 -756 0
-585 -755 756 0
-585 -757 0
748 -757 0
585 -748 757 0
-756 758 0
-757 758 0
756 757 -758 0
-454 -759 0
758 -759 0
454 -758 759 0
-752 760 0
-759 760 0
752 759 -760 0
-677 -335 -761 0
677 335 -761 0
-677 335 761 0
677 -335 761 0
-760 -453 -762 0
760 453 -762 0
-760 453 762 0
760 -453 762 0
-761 -763 0
-762 -763 0
592 -763 0
761 762 -592 763 0
-214 763 0
